p cnf 21 49
c 2 j
c 3 k
c 4 g
c 5 i
c 6 h
c 7 a
c 8 b
c 9 f
c 10 e
c 11 d
c 12 c
2 3 0
-2 -3 0
3 2 0
-3 -2 0
13 -2 0
-13 2 0
14 -2 0
-14 2 0
6 -5 0
-6 5 0
15 -6 0
-15 6 0
7 8 0
-7 -8 0
8 7 0
-8 -7 0
9 10 0
-9 -10 0
10 9 0
-10 -9 0
16 -9 0
-16 9 0
17 -10 0
-17 10 0
18 -4 0
-18 4 0
19 -7 -11 0
-19 7 0
-19 11 0
20 -7 -12 0
-20 7 0
-20 12 0
21 -11 0
-21 11 0
-1 0
-1 0
-4 13 21 0
4 -13 0
4 -21 0
-5 14 15 0
5 -14 0
5 -15 0
-11 16 18 20 0
11 -16 0
11 -18 0
11 -20 0
-12 17 19 0
12 -17 0
12 -19 0
